&CONTROL
   tprnfor          = .true.
   tefield          = .true.
   dipfield         = .true.
/
&SYSTEM
   ecutwfc          = 60
   ecutrho          = 480
   occupations      = 'smearing'
   degauss          = 0.01
   smearing         = 'gaussian'
   edir             = 3
   emaxpos          = 0.0001
   eopreg           = 0.0001
   eamp             = 0.0
   ntyp             = 2
   nat              = 3
   ibrav            = 0
/
&ELECTRONS
   conv_thr         = 1e-06
/
&IONS
/
&CELL
/

ATOMIC_SPECIES
O 15.999 o_pbe_v1.2.uspp.F.UPF
H 1.008 h_pbe_v1.4.uspp.F.UPF

K_POINTS automatic
1 1 1  0 0 0

CELL_PARAMETERS angstrom
10.00000000000000 0.00000000000000 0.00000000000000
0.00000000000000 10.00000000000000 0.00000000000000
0.00000000000000 0.00000000000000 10.00000000000000

ATOMIC_POSITIONS angstrom
O 5.0000000000 5.0000000000 5.3029931351  
H 5.0000000000 5.7696356566 4.6970068649  
H 5.0000000000 4.2303643434 4.6970068649  

