&CONTROL
  calculation = 'bands',
  restart_mode = 'from_scratch',
  prefix = 'fe',
  outdir = './tmp/'
  pseudo_dir = './'
  verbosity = 'high'
/

 &SYSTEM
  ibrav = 3,
  celldm(1) = 5.42,
  nat = 1,
  ntyp = 1,
  ecutwfc = 25.0,
  ecutrho = 200.0,

  occupations = 'smearing',
  smearing    = 'mv',
  degauss     = 0.01,

  nspin = 2, 
  starting_magnetization(1) = 0.6
 /


&ELECTRONS
  conv_thr = 1e-8,
  mixing_beta = 0.2
/

ATOMIC_SPECIES
  Fe  1.0  Fe.pbe-spn-kjpaw_psl.0.2.1.UPF

ATOMIC_POSITIONS crystal
   Fe 0.0  0.0  0.0 

K_POINTS (automatic)
   8 8 8   1 1 1