&BANDS
  prefix = 'fe'
  outdir = './tmp/'
  filband = 'fe_bands_dn.dat'
  spin_component = 2
/