&BANDS
  prefix = 'fe'
  outdir = './tmp/'
  filband = 'fe_bands_up.dat'
  spin_component = 1
/