&CONTROL
  calculation = 'bands',
  restart_mode = 'from_scratch',
  prefix = 'fe',
  outdir = './tmp/'
  pseudo_dir = './'
  verbosity = 'high'
/

 &SYSTEM
  ibrav = 3,
  celldm(1) = 5.42,
  nat = 1,
  ntyp = 1,
  ecutwfc = 25.0,
  ecutrho = 200.0,

  occupations = 'smearing',
  smearing    = 'mv',
  degauss     = 0.01,

  nspin = 2, 
  starting_magnetization(1) = 0.6
 /


&ELECTRONS
  conv_thr = 1e-8,
  mixing_beta = 0.2
/

ATOMIC_SPECIES
  Fe  1.0  Fe.pbe-spn-kjpaw_psl.0.2.1.UPF

ATOMIC_POSITIONS crystal
   Fe 0.0  0.0  0.0 

K_POINTS crystal_b
8
0.0000  0.0000  0.0000  51 !G   
0.5000 -0.5000  0.5000  51 !H   
0.0000  0.0000  0.5000  51 !N   
0.0000  0.0000  0.0000  51 !G   
0.2500  0.2500  0.2500  51 !P   
0.5000 -0.5000  0.5000   1 !H   
0.2500  0.2500  0.2500  51 !P   
0.0000  0.0000  0.5000  51 !N   