&CONTROL
   tprnfor          = .true.
   tefield          = .true.
   dipfield         = .true.
/
&SYSTEM
   ecutwfc          = 60
   ecutrho          = 480
   occupations      = 'smearing'
   degauss          = 0.01
   smearing         = 'gaussian'
   input_dft        = 'vdw-df2-b86r'
   edir             = 3
   emaxpos          = 1.0
   eopreg           = 0.0001
   eamp             = 0.0
   ntyp             = 2
   nat              = 4
   ibrav            = 0
/
&ELECTRONS
   conv_thr         = 1e-06
/
&IONS
/
&CELL
/

ATOMIC_SPECIES
B 10.81 b_pbe_v1.4.uspp.F.UPF
H 1.008 h_pbe_v1.4.uspp.F.UPF

K_POINTS automatic
12 12 1  0 0 0

CELL_PARAMETERS angstrom
3.01487985400000 -0.01082761300000 0.00000000000000
1.51699900700000 2.63935528800000 0.00000000000000
0.00000000000000 0.00000000000000 11.93377064000000

ATOMIC_POSITIONS angstrom
B 0.0000000000 0.0000000000 5.9668853200  
B 1.5103610330 0.8187200100 5.9768853200  
H 1.5137345180 1.7290760460 6.9337706400  
H 1.5137345180 1.7290760460 5.0000000000  

